p cnf 13 22
-13 12 3 0
13 -8 -3 0
-13 7 -3 0
13 7 -1 0
-13 -5 1 0
-13 -3 -2 0
12 -10 6 0
12 10 3 0
-12 -8 -5 0
-12 5 2 0
-11 4 3 0
-10 5 3 0
9 -8 -3 0
9 -6 -5 0
9 -5 4 0
9 -3 -2 0
-8 -7 1 0
7 3 -1 0
-5 4 3 0
-5 -4 -2 0
5 -3 2 0
4 2 1 0
